
Gurobi 10.0.1 (win64) logging started Thu Jul 13 17:32:14 2023

Set parameter LogFile to value "results/log/MetalMeca_deadline.log"
Gurobi Optimizer version 10.0.1 build v10.0.1rc0 (win64)

CPU model: AMD Ryzen 7 3700X 8-Core Processor, instruction set [SSE2|AVX|AVX2]
Thread count: 8 physical cores, 16 logical processors, using up to 16 threads

Optimize a model with 18677 rows, 45917 columns and 88357 nonzeros
Model fingerprint: 0x67de789c
Model has 1 quadratic constraint
Variable types: 0 continuous, 45917 integer (45373 binary)
Coefficient statistics:
  Matrix range     [1e+00, 1e+08]
  QMatrix range    [1e+00, 1e+00]
  QLMatrix range   [1e+00, 2e+04]
  Objective range  [1e+00, 1e+00]
  Bounds range     [1e+00, 1e+00]
  RHS range        [1e+00, 3e+08]
Presolve removed 948 rows and 40525 columns
Presolve time: 0.18s
Presolved: 17771 rows, 5433 columns, 77903 nonzeros
Variable types: 0 continuous, 5433 integer (4848 binary)
Root relaxation presolve removed 73 rows and 0 columns
Root relaxation presolved: 17698 rows, 5506 columns, 77757 nonzeros


Root relaxation: objective 0.000000e+00, 2415 iterations, 0.09 seconds (0.11 work units)

    Nodes    |    Current Node    |     Objective Bounds      |     Work
 Expl Unexpl |  Obj  Depth IntInf | Incumbent    BestBd   Gap | It/Node Time

     0     0    0.00000    0  277          -    0.00000      -     -    0s
     0     0    0.00000    0  514          -    0.00000      -     -    1s
     0     0    0.00000    0  510          -    0.00000      -     -    1s
     0     0    0.00000    0  472          -    0.00000      -     -    1s
     0     0    0.00000    0  257          -    0.00000      -     -    2s
     0     0    0.00000    0  383          -    0.00000      -     -    2s
     0     0    0.00000    0  308          -    0.00000      -     -    3s
     0     0    0.00000    0  308          -    0.00000      -     -    3s
     0     2    0.00000    0  305          -    0.00000      -     -    4s
     1     4    0.00000    1  305          -    0.00000      -  2016    5s
   970   883 34381.0000  102  295          -    0.00000      -  72.1   10s
  2010  1515 34381.0000  127  579          -    0.00000      -  57.5   24s
  2011  1516 4966.61545   43  708          - 4966.61545      -  57.5   26s
  2014  1518 12101.5914   12 1054          - 6872.57324      -  57.4   31s
  2018  1521 27521.0000   82 1301          - 7153.47292      -  57.3   35s
  2020  1522 20868.0000  112 1275          - 7367.37450      -  57.2   43s
  2025  1525 16457.0000   50 1364          - 7394.08909      -  57.1   45s
  2038  1534 34381.0000  106 1012          - 8350.17570      -  56.7   50s
  2062  1550 24081.0000   80 1319          - 8553.86813      -  56.0   55s
  2074  1558 36508.0000  223 1024          - 8676.48954      -  55.7   60s
  2098  1574 8778.93582   35 1224          - 8778.93582      -  55.1   65s
  2123  1591 8858.57685    7 1210          - 8858.57685      -  54.4   70s
  2150  1609 26139.0000   28 1171          - 8899.06184      -  53.7   75s
  2170  1622 14565.0000   77 1124          - 8917.92407      -  53.2   80s

Cutting planes:
  Learned: 5
  Gomory: 53
  Cover: 11
  Implied bound: 33
  Clique: 7
  MIR: 57
  Flow cover: 477
  Zero half: 5
  RLT: 4
  Relax-and-lift: 60

Explored 2172 nodes (251221 simplex iterations) in 80.82 seconds (71.82 work units)
Thread count was 16 (of 16 available processors)

Solution count 0

Solve interrupted
Best objective -, best bound 8.919000000000e+03, gap -
Warning: variable name "b[job:0, stage:0, machine:18]" has a space
Warning: constraint name "precedence between 1,0 to 0,0 if x_[j,l,h,z,i]=1" has a space
Warning: to let Gurobi read it back, use rlp format
